c "434900.clq"
p edge 100 384
e 1 5
e 1 6
e 1 7
e 1 9
e 1 10
e 1 11
e 1 12
e 1 13
e 1 14
e 1 19
e 1 21
e 1 34
e 1 38
e 1 43
e 1 46
e 1 54
e 1 69
e 1 79
e 1 87
e 1 94
e 1 96
e 2 5
e 2 10
e 2 14
e 2 16
e 2 22
e 2 23
e 2 25
e 2 31
e 2 35
e 2 36
e 2 37
e 2 54
e 2 55
e 2 58
e 2 64
e 2 74
e 3 5
e 3 6
e 3 7
e 3 40
e 3 49
e 3 60
e 3 70
e 3 88
e 4 5
e 4 6
e 4 7
e 4 8
e 4 10
e 4 11
e 4 20
e 4 22
e 4 29
e 4 31
e 4 38
e 4 53
e 4 56
e 4 57
e 4 61
e 4 62
e 4 76
e 4 77
e 4 98
e 5 6
e 5 7
e 5 8
e 5 9
e 5 11
e 5 12
e 5 14
e 5 15
e 5 20
e 5 22
e 5 23
e 5 28
e 5 33
e 5 35
e 5 51
e 5 59
e 5 62
e 5 70
e 5 80
e 5 83
e 6 8
e 6 9
e 6 13
e 6 18
e 6 27
e 6 33
e 6 37
e 6 39
e 6 49
e 6 53
e 6 55
e 6 58
e 6 72
e 6 84
e 6 86
e 6 91
e 6 92
e 6 96
e 7 8
e 7 9
e 7 13
e 7 15
e 7 18
e 7 19
e 7 25
e 7 26
e 7 28
e 7 30
e 7 33
e 7 37
e 7 45
e 7 47
e 7 62
e 7 68
e 7 69
e 7 71
e 7 80
e 7 88
e 7 100
e 8 10
e 8 12
e 8 17
e 8 35
e 8 43
e 8 52
e 8 53
e 8 60
e 8 69
e 8 73
e 8 84
e 8 88
e 8 93
e 9 20
e 9 21
e 9 23
e 9 29
e 9 47
e 9 50
e 9 90
e 10 11
e 10 16
e 10 17
e 10 20
e 10 22
e 10 26
e 10 28
e 10 29
e 10 30
e 10 36
e 10 39
e 10 40
e 10 46
e 10 47
e 10 51
e 10 58
e 10 61
e 10 73
e 10 84
e 10 90
e 10 91
e 10 93
e 10 97
e 11 12
e 11 13
e 11 15
e 11 16
e 11 18
e 11 21
e 11 23
e 11 26
e 11 31
e 11 32
e 11 39
e 11 48
e 11 50
e 11 55
e 11 60
e 11 66
e 11 72
e 11 74
e 11 85
e 11 93
e 12 14
e 12 18
e 12 19
e 12 27
e 12 34
e 12 42
e 12 58
e 12 76
e 12 81
e 12 100
e 13 15
e 13 17
e 13 21
e 13 24
e 13 25
e 13 26
e 13 27
e 13 33
e 13 34
e 13 38
e 13 40
e 13 41
e 13 42
e 13 43
e 13 44
e 13 45
e 13 59
e 13 64
e 13 65
e 13 67
e 13 75
e 13 81
e 13 86
e 13 89
e 13 94
e 13 99
e 14 46
e 14 77
e 14 79
e 14 80
e 15 16
e 15 19
e 15 34
e 15 51
e 15 63
e 15 65
e 15 77
e 16 17
e 16 32
e 16 57
e 16 76
e 16 90
e 16 100
e 18 74
e 18 82
e 18 87
e 18 89
e 18 97
e 18 98
e 19 25
e 19 36
e 19 44
e 19 54
e 19 57
e 19 95
e 20 48
e 20 63
e 21 24
e 21 30
e 21 41
e 22 24
e 22 32
e 22 49
e 22 52
e 22 72
e 22 82
e 23 24
e 23 27
e 23 32
e 23 42
e 23 46
e 23 47
e 23 56
e 23 65
e 23 83
e 25 28
e 25 41
e 25 57
e 25 59
e 25 73
e 25 74
e 25 81
e 25 91
e 26 31
e 26 54
e 26 97
e 27 29
e 27 39
e 27 45
e 27 56
e 27 66
e 27 68
e 27 77
e 27 91
e 28 36
e 28 65
e 28 96
e 29 30
e 30 66
e 30 96
e 31 35
e 31 37
e 31 40
e 31 41
e 31 44
e 31 81
e 31 86
e 31 89
e 33 92
e 34 38
e 34 42
e 34 48
e 34 70
e 34 71
e 35 48
e 36 45
e 36 55
e 36 64
e 36 75
e 36 79
e 36 85
e 36 95
e 37 50
e 37 60
e 37 92
e 38 43
e 38 100
e 39 50
e 39 52
e 39 67
e 39 99
e 40 49
e 41 44
e 41 83
e 42 67
e 42 92
e 44 61
e 44 78
e 45 63
e 47 56
e 47 78
e 48 51
e 48 52
e 48 53
e 48 71
e 48 82
e 48 98
e 53 67
e 54 59
e 54 68
e 54 75
e 54 86
e 55 61
e 55 89
e 55 94
e 56 72
e 57 64
e 57 80
e 58 63
e 60 71
e 60 94
e 61 62
e 61 73
e 62 66
e 62 70
e 62 75
e 62 78
e 62 79
e 62 85
e 64 68
e 66 69
e 67 85
e 69 78
e 70 84
e 71 88
e 71 99
e 73 83
e 73 95
e 75 76
e 76 82
e 77 93
e 78 87
e 78 95
e 81 87
e 84 90
e 85 97
e 85 98
e 94 99
